61828
0 30 8318
30 24 299
24 10 545
10 44 436
44 51 722
51 1 598
1 13 433
13 8 471
8 11 723
11 17 768
17 3 606
3 29 380
29 46 944
46 53 491
53 33 401
33 52 396
52 22 388
22 20 176
20 28 516
28 21 544
21 9 117
9 15 734
15 38 451
38 45 214
45 35 402
35 14 679
14 16 2537
16 47 415
47 48 761
48 25 560
25 54 397
54 27 487
27 5 404
5 2 385
2 42 1096
42 12 790
12 50 644
50 36 590
36 4 467
4 34 323
34 23 296
23 19 740
19 49 763
49 37 1180
37 7 368
7 43 383
43 31 676
31 40 362
40 18 1369
18 6 3022
6 39 1176
39 41 7902
41 32 4807
32 26 4053
26 0 4123
